InboundTrucks  = 60;
OutboundTrucks = 30;
InboundDoors   = 6;
OutboundDoors  = 6;
ReleaseTime    = [74,108,24,116,69,118,45,59,6,84,64,27,77,28,117,36,62,88,100,27,42,56,9,32,24,20,11,56,98,68,46,24,60,100,41,30,81,101,51,54,26,8,55,59,38,27,14,83,105,79,87,42,85,109,112,34,50,100,48,29];
UnloadTime     = [37,14,35,36,10,39,23,44,16,32,11,33,33,10,26,19,12,37,21,27,14,19,35,33,40,20,41,42,29,21,43,10,15,14,12,32,44,38,17,39,18,21,22,45,38,18,15,19,29,31,34,14,13,45,45,32,39,13,22,27];
LoadTime       = [26,15,7,13,9,13,19,11,18,8,21,30,15,12,8,13,25,10,5,5,25,17,24,19,25,23,6,30,15,12];
TransferTime   = [| 0,0,47,0,0,0,0,0,0,0,24,0,17,17,0,0,0,0,0,0,0,0,44,0,0,0,0,0,29,0 | 47,0,0,0,0,0,0,0,0,0,0,0,36,0,0,0,0,0,0,0,27,0,15,0,0,0,0,36,10,23 | 0,0,0,0,0,47,0,0,18,22,0,0,0,0,0,43,0,0,0,0,0,0,17,0,0,0,0,0,27,0 | 13,43,16,0,34,0,0,0,0,0,0,0,0,34,0,0,19,0,0,0,27,0,0,12,43,0,0,0,0,0 | 0,0,0,0,0,0,0,0,0,0,0,11,0,0,34,13,34,35,0,0,38,0,0,0,0,0,0,0,0,0 | 0,0,0,43,10,0,0,0,0,0,0,0,0,0,0,0,0,0,0,39,0,0,0,0,0,44,0,0,0,0 | 0,47,20,0,0,0,0,0,0,0,0,0,0,18,22,0,19,0,0,21,37,0,32,0,26,10,30,27,50,36 | 22,0,0,0,0,0,0,0,0,0,0,0,0,19,0,16,0,0,0,23,0,0,16,35,0,21,0,0,0,49 | 0,21,45,0,0,0,13,0,0,0,0,0,0,0,0,33,41,0,0,0,0,0,38,0,0,0,0,14,0,0 | 0,39,0,23,44,18,0,0,0,0,0,49,21,0,0,0,0,0,42,0,0,0,29,0,0,31,0,29,44,0 | 0,0,12,0,0,0,31,0,0,0,0,0,0,16,0,0,0,22,24,0,43,0,0,0,34,0,0,0,0,0 | 0,0,0,22,0,0,0,0,0,0,48,0,12,0,0,0,0,44,22,0,0,21,0,0,0,0,0,0,0,0 | 0,0,0,0,0,0,0,0,16,0,22,0,50,0,29,25,0,50,50,45,0,0,0,0,0,30,0,38,0,0 | 0,0,0,14,18,0,0,0,0,0,0,13,0,45,37,0,0,41,0,31,0,0,0,46,50,0,0,0,50,0 | 12,40,0,0,0,0,0,0,0,31,31,0,0,24,48,0,0,0,31,0,0,33,0,0,0,0,0,10,0,44 | 0,0,0,0,0,0,0,0,0,0,41,11,0,0,0,0,0,39,0,0,27,0,0,0,0,0,0,0,0,0 | 0,33,0,0,0,27,0,0,0,0,0,0,30,47,0,0,0,0,0,0,0,0,0,0,0,0,0,0,0,30 | 0,0,0,0,0,0,0,0,0,0,0,33,0,0,0,0,0,0,0,0,0,0,0,0,0,17,16,24,0,10 | 0,25,0,0,0,0,0,0,0,46,0,19,0,0,0,0,0,0,0,23,0,20,0,0,0,28,0,14,0,0 | 0,0,0,0,0,0,0,27,0,0,0,0,44,0,0,0,15,33,0,0,0,0,27,24,31,41,0,0,0,47 | 0,0,0,0,0,0,0,18,12,0,0,0,33,0,0,21,0,50,40,0,0,0,0,0,0,0,0,39,0,0 | 0,46,33,0,30,34,0,0,0,0,0,15,0,0,0,0,0,0,15,0,0,0,48,0,45,0,0,0,12,0 | 0,21,0,0,0,0,0,28,0,0,0,0,16,0,0,0,0,15,0,0,0,0,26,34,0,0,0,0,0,0 | 0,0,0,0,0,15,0,0,0,28,0,0,0,0,0,0,0,0,0,0,0,0,0,0,30,29,0,0,0,0 | 0,35,0,0,0,10,0,15,0,13,0,11,43,0,35,0,0,16,0,0,25,0,0,0,0,0,0,0,13,45 | 0,39,0,0,0,0,0,0,0,0,0,0,0,0,0,0,28,0,0,0,0,0,0,0,0,0,0,0,0,0 | 0,0,0,0,25,0,0,0,14,37,45,0,0,0,0,0,0,27,22,0,50,0,0,0,0,0,0,0,0,0 | 37,0,0,0,0,0,0,16,0,38,0,48,39,0,0,0,0,25,0,0,42,0,14,0,0,0,42,0,0,0 | 0,0,0,0,0,0,32,0,49,0,0,26,0,0,0,0,0,0,0,0,0,0,0,34,0,0,0,0,0,0 | 0,0,0,0,0,0,0,27,0,0,0,0,0,0,0,36,44,0,31,16,0,33,0,0,21,0,0,0,0,0 | 0,25,29,0,25,0,0,0,0,0,0,0,35,0,40,0,0,0,0,26,0,15,30,0,0,0,0,17,19,0 | 0,0,0,36,0,0,0,25,0,0,0,33,0,0,0,0,0,0,0,14,0,47,0,0,0,41,0,0,0,37 | 0,0,46,0,29,0,0,0,0,0,0,0,0,0,0,0,0,0,0,0,0,0,33,0,0,0,32,41,0,0 | 22,0,0,46,0,0,0,21,0,0,0,0,0,36,41,21,0,0,0,0,0,0,0,0,0,0,0,0,0,0 | 49,14,16,29,0,0,0,0,0,0,0,0,0,10,0,0,28,19,0,0,24,0,0,0,0,0,0,0,46,0 | 0,0,0,0,33,11,12,0,0,0,37,0,0,0,23,0,26,37,35,0,34,26,27,19,18,0,0,0,0,0 | 0,0,0,0,0,0,0,0,0,14,11,0,16,0,0,0,29,0,18,0,0,0,0,0,0,0,0,0,0,0 | 0,0,0,0,0,0,0,23,24,0,32,17,0,0,0,0,0,0,0,0,17,0,0,0,0,0,0,39,0,18 | 0,0,0,0,0,0,0,38,0,0,0,0,0,0,0,0,0,0,0,0,0,46,22,0,0,0,26,16,0,0 | 0,48,0,0,0,0,0,28,0,0,47,0,48,0,25,0,14,0,23,0,0,0,0,0,0,39,23,0,0,0 | 17,37,0,0,0,0,0,44,0,0,0,0,0,41,0,0,0,0,0,25,14,16,0,0,0,0,0,0,0,0 | 0,35,0,12,0,0,0,0,0,0,0,0,31,0,19,23,0,0,0,0,0,0,0,0,0,27,0,0,0,0 | 0,45,0,0,39,0,0,0,0,0,0,24,0,0,0,0,0,19,0,0,0,0,0,0,0,0,0,0,0,19 | 0,0,0,0,0,0,0,0,0,0,0,0,0,22,0,0,26,48,12,21,0,0,0,0,0,0,0,0,0,11 | 0,40,39,0,0,24,36,0,0,0,0,0,16,31,32,0,0,0,44,0,0,0,0,0,0,0,0,0,14,17 | 0,0,0,0,0,0,35,0,32,0,16,0,0,0,0,27,10,45,0,0,0,0,0,0,0,0,0,0,48,0 | 0,0,0,29,26,0,0,12,0,0,0,25,0,0,30,0,25,22,0,38,0,50,32,0,10,0,0,0,0,0 | 0,0,0,0,0,0,45,0,47,48,0,0,0,0,0,0,0,0,25,17,15,0,0,0,0,11,0,0,0,0 | 46,0,0,0,0,48,0,0,0,0,0,0,0,0,40,0,0,10,0,0,0,0,0,0,21,0,0,22,17,0 | 0,0,32,0,15,0,0,0,27,24,0,0,0,34,19,25,0,0,46,0,0,0,0,0,0,0,0,0,0,0 | 0,12,0,0,0,0,0,30,0,0,11,18,0,0,36,0,31,0,0,0,29,16,0,17,0,12,0,30,0,0 | 19,0,0,0,18,0,0,0,0,0,0,0,43,0,0,0,0,0,0,10,0,27,23,0,0,12,0,0,0,0 | 0,0,0,0,13,27,0,0,0,0,0,0,31,0,0,0,45,0,16,0,0,33,0,0,28,0,43,0,12,32 | 0,21,0,0,33,0,43,50,0,32,0,0,0,11,0,42,0,45,0,0,0,0,0,0,0,0,0,42,0,0 | 0,0,45,0,0,0,30,0,0,0,0,0,0,0,0,0,26,0,0,0,49,0,0,0,38,0,0,28,0,27 | 0,0,0,0,0,0,30,0,0,0,47,41,27,0,0,0,0,0,0,0,0,13,0,0,0,0,0,0,0,0 | 0,0,0,0,0,0,15,0,0,0,0,31,0,0,0,0,0,0,0,47,0,29,0,0,0,0,14,0,0,0 | 0,0,0,0,0,0,0,0,29,0,0,0,0,0,41,0,38,0,0,35,25,30,31,43,0,10,0,0,0,0 | 43,16,27,0,0,39,31,46,44,0,0,41,0,30,35,0,0,0,19,0,0,0,0,0,0,0,0,32,0,24 | 0,50,0,0,0,0,48,0,0,0,0,41,0,0,27,0,0,28,0,0,30,0,0,0,11,0,0,0,0,0 |];
